(set-info :smt-lib-version 2.6)
(set-logic QF_ABV)
(set-info :source |
Generated by the tool Ultimate Automizer [1,2] which implements
an automata theoretic approach [3] to software verification.

This SMT script belongs to a set of SMT scripts that was generated by
applying Ultimate Automizer to benchmarks [4] from the SV-COMP 2023 [5,6].
This script may not contain all SMT commands that Ultimate Automizer
issued. In order to meet the restrictions for SMT-COMP benchmarks 
we dropped the commands for getting values (resp. models), 
unsatisfiable cores, and interpolants.

2023-03-21, Matthias Heizmann (heizmann@informatik.uni-freiburg.de)

[1] https://ultimate.informatik.uni-freiburg.de/automizer/
[2] Matthias Heizmann, Max Barth, Daniel Dietsch, Leonard Fichtner,
     Jochen Hoenicke, Dominik Klumpp, Mehdi Naouar, Tanja Schindler,
     Frank Schüssele, Andreas Podelski: Ultimate Automizer and the
     CommuHash Normal Form (Competition Contribution). TACAS 2023
[3] Matthias Heizmann, Jochen Hoenicke, Andreas Podelski: Software Model
     Checking for People Who Love Automata. CAV 2013
[4] https://github.com/sosy-lab/sv-benchmarks
[5] Dirk Beyer: Competition on Software Verification and
     Witness Validation: SV-COMP 2023.  TACAS 2023
[6] https://sv-comp.sosy-lab.org/2023/
|)
(set-info :license "https://creativecommons.org/licenses/by/4.0/")
(set-info :category "industrial")
(set-info :status unknown)
(declare-fun |#funAddr~thr1.base| () (_ BitVec 64))
(declare-fun |#funAddr~thr1.offset| () (_ BitVec 64))
(declare-fun |#funAddr~thr2.base| () (_ BitVec 64))
(declare-fun |#funAddr~thr2.offset| () (_ BitVec 64))
(declare-fun |#funAddr~main_thread.base| () (_ BitVec 64))
(declare-fun |#funAddr~main_thread.offset| () (_ BitVec 64))
(declare-fun ~unnamed0~0~P_ALL () (_ BitVec 32))
(declare-fun ~unnamed0~0~P_PID () (_ BitVec 32))
(declare-fun ~unnamed0~0~P_PGID () (_ BitVec 32))
(assert (and (= (_ bv0 64) (bvadd (_ bv1 64) |#funAddr~thr1.base|)) (= (_ bv0 64) |#funAddr~thr1.offset|)))
(assert (and (= (_ bv0 64) (bvadd |#funAddr~thr2.base| (_ bv1 64))) (= (_ bv1 64) |#funAddr~thr2.offset|)))
(assert (and (= |#funAddr~main_thread.offset| (_ bv2 64)) (= (_ bv0 64) (bvadd (_ bv1 64) |#funAddr~main_thread.base|))))
(assert (= ~unnamed0~0~P_ALL (_ bv0 32)))
(assert (= ~unnamed0~0~P_PID (_ bv1 32)))
(assert (= (_ bv2 32) ~unnamed0~0~P_PGID))
(declare-fun |v_#memory_int_65_const_-1468270470| () (Array (_ BitVec 64) (Array (_ BitVec 64) (_ BitVec 32))))
(declare-fun |v_ULTIMATE.start_main_~#__CS_cp_x~0#1.base_8_const_-692665139| () (_ BitVec 64))
(declare-fun |v_ULTIMATE.start_main_~#__CS_cp_x~0#1.offset_8_const_-1657968305| () (_ BitVec 64))
(declare-fun |v_~#x~0.base_4_const_1306971464| () (_ BitVec 64))
(declare-fun |v_~#x~0.offset_4_const_-461548150| () (_ BitVec 64))
(declare-fun |v_ULTIMATE.start_main_~#__CS_cp_y~0#1.base_8_const_-555458132| () (_ BitVec 64))
(declare-fun |v_ULTIMATE.start_main_~#__CS_cp_y~0#1.offset_8_const_-1085361426| () (_ BitVec 64))
(declare-fun |v_~#y~0.base_4_const_2042609255| () (_ BitVec 64))
(declare-fun |v_~#y~0.offset_4_const_-324340887| () (_ BitVec 64))
(declare-fun |v_ULTIMATE.start_main_~#__CS_cp_b1~0#1.base_8_const_-291449572| () (_ BitVec 64))
(declare-fun |v_ULTIMATE.start_main_~#__CS_cp_b1~0#1.offset_8_const_1318685278| () (_ BitVec 64))
(declare-fun |v_~#b1~0.base_4_const_-1274134315| () (_ BitVec 64))
(declare-fun |v_~#b1~0.offset_4_const_-157867433| () (_ BitVec 64))
(declare-fun |v_ULTIMATE.start_main_~#__CS_cp_b2~0#1.base_8_const_-152145157| () (_ BitVec 64))
(declare-fun |v_ULTIMATE.start_main_~#__CS_cp_b2~0#1.offset_8_const_1757139965| () (_ BitVec 64))
(declare-fun |v_~#b2~0.base_4_const_-1547226636| () (_ BitVec 64))
(declare-fun |v_~#b2~0.offset_4_const_-20623562| () (_ BitVec 64))
(declare-fun |v_ULTIMATE.start_main_~#__CS_cp_X~0#1.base_8_const_-657616659| () (_ BitVec 64))
(declare-fun |v_ULTIMATE.start_main_~#__CS_cp_X~0#1.offset_8_const_1491582319| () (_ BitVec 64))
(declare-fun |v_~#X~0.base_4_const_-80469656| () (_ BitVec 64))
(declare-fun |v_~#X~0.offset_4_const_-290446934| () (_ BitVec 64))
(declare-fun |v_~#__CS_thread_born_round~0.base_4_const_-1016668058| () (_ BitVec 64))
(declare-fun |v_~#__CS_thread_born_round~0.offset_4_const_-2053727960| () (_ BitVec 64))
(declare-fun v_~__CS_round~0_21_const_1613994104 () (_ BitVec 8))
(declare-fun |v_~#__CS_thread_status~0.base_14_const_56953579| () (_ BitVec 64))
(declare-fun |v_~#__CS_thread_status~0.offset_14_const_-1919497367| () (_ BitVec 64))
(declare-fun v_~__THREAD_RUNNING~0_4_const_-1361775354 () (_ BitVec 8))
(declare-fun |v_~#__CS_thread_allocated~0.base_4_const_-1693733985| () (_ BitVec 64))
(declare-fun |v_~#__CS_thread_allocated~0.offset_4_const_-211819903| () (_ BitVec 64))
(declare-fun |v_#memory_int_52_const_-1468270504| () (Array (_ BitVec 64) (Array (_ BitVec 64) (_ BitVec 32))))
(declare-fun |v_#memory_$Pointer$.offset_42_const_1484089844| () (Array (_ BitVec 64) (Array (_ BitVec 64) (_ BitVec 64))))
(declare-fun |v_#memory_$Pointer$.offset_43_const_1484089843| () (Array (_ BitVec 64) (Array (_ BitVec 64) (_ BitVec 64))))
(declare-fun |v_#memory_$Pointer$.base_44_const_1579253936| () (Array (_ BitVec 64) (Array (_ BitVec 64) (_ BitVec 64))))
(declare-fun |v_#memory_$Pointer$.base_45_const_1579253951| () (Array (_ BitVec 64) (Array (_ BitVec 64) (_ BitVec 64))))
(declare-fun |v_#memory_$Pointer$.offset_53_const_1484089748| () (Array (_ BitVec 64) (Array (_ BitVec 64) (_ BitVec 64))))
(declare-fun |v_#memory_$Pointer$.offset_54_const_1484089747| () (Array (_ BitVec 64) (Array (_ BitVec 64) (_ BitVec 64))))
(declare-fun |v_#memory_int_67_const_-1468270468| () (Array (_ BitVec 64) (Array (_ BitVec 64) (_ BitVec 32))))
(declare-fun |v_~#__CS_thread_lockedon~0.base_8_const_1870902617| () (_ BitVec 64))
(declare-fun |v_~#__CS_thread_lockedon~0.offset_8_const_-2049935653| () (_ BitVec 64))
(declare-fun |v_#memory_int_68_const_-1468270465| () (Array (_ BitVec 64) (Array (_ BitVec 64) (_ BitVec 32))))
(declare-fun |v_#memory_int_66_const_-1468270467| () (Array (_ BitVec 64) (Array (_ BitVec 64) (_ BitVec 32))))
(declare-fun |v_#memory_$Pointer$.base_52_const_1579253843| () (Array (_ BitVec 64) (Array (_ BitVec 64) (_ BitVec 64))))
(declare-fun |v_#memory_$Pointer$.base_53_const_1579253842| () (Array (_ BitVec 64) (Array (_ BitVec 64) (_ BitVec 64))))
(declare-fun |v_#memory_$Pointer$.offset_64_const_1484089780| () (Array (_ BitVec 64) (Array (_ BitVec 64) (_ BitVec 64))))
(declare-fun |v_#memory_$Pointer$.offset_65_const_1484089779| () (Array (_ BitVec 64) (Array (_ BitVec 64) (_ BitVec 64))))
(declare-fun |v_#memory_$Pointer$.base_61_const_1579253877| () (Array (_ BitVec 64) (Array (_ BitVec 64) (_ BitVec 64))))
(declare-fun |v_ULTIMATE.start_main_~#__CS_cp___CS_thread_lockedon~0#1.base_12_const_-1112745699| () (_ BitVec 64))
(declare-fun |v_ULTIMATE.start_main_~#__CS_cp___CS_thread_lockedon~0#1.offset_12_const_-1401369445| () (_ BitVec 64))
(declare-fun |v_#memory_$Pointer$.base_54_const_1579253841| () (Array (_ BitVec 64) (Array (_ BitVec 64) (_ BitVec 64))))
(declare-fun |v_#memory_$Pointer$.offset_63_const_1484089781| () (Array (_ BitVec 64) (Array (_ BitVec 64) (_ BitVec 64))))
(declare-fun v_~__CS_thread~0.offset_13_const_236801113 () (Array (_ BitVec 64) (_ BitVec 64)))
(declare-fun v_~__CS_thread~0.offset_14_const_236801112 () (Array (_ BitVec 64) (_ BitVec 64)))
(declare-fun |v_#memory_$Pointer$.offset_44_const_1484089842| () (Array (_ BitVec 64) (Array (_ BitVec 64) (_ BitVec 64))))
(declare-fun |v_#memory_$Pointer$.offset_45_const_1484089841| () (Array (_ BitVec 64) (Array (_ BitVec 64) (_ BitVec 64))))
(declare-fun |v_#memory_$Pointer$.base_48_const_1579253948| () (Array (_ BitVec 64) (Array (_ BitVec 64) (_ BitVec 64))))
(declare-fun |v_#memory_$Pointer$.base_49_const_1579253947| () (Array (_ BitVec 64) (Array (_ BitVec 64) (_ BitVec 64))))
(declare-fun v_~__CS_thread_index~0_11_const_1368743350 () (_ BitVec 8))
(declare-fun |v_#memory_$Pointer$.offset_49_const_1484089853| () (Array (_ BitVec 64) (Array (_ BitVec 64) (_ BitVec 64))))
(declare-fun |v_#memory_$Pointer$.offset_50_const_1484089751| () (Array (_ BitVec 64) (Array (_ BitVec 64) (_ BitVec 64))))
(declare-fun |v_#memory_$Pointer$.base_42_const_1579253938| () (Array (_ BitVec 64) (Array (_ BitVec 64) (_ BitVec 64))))
(declare-fun |v_#memory_$Pointer$.base_43_const_1579253937| () (Array (_ BitVec 64) (Array (_ BitVec 64) (_ BitVec 64))))
(declare-fun |v_#memory_$Pointer$.base_62_const_1579253876| () (Array (_ BitVec 64) (Array (_ BitVec 64) (_ BitVec 64))))
(declare-fun |v_#memory_$Pointer$.base_63_const_1579253875| () (Array (_ BitVec 64) (Array (_ BitVec 64) (_ BitVec 64))))
(declare-fun |v_#memory_$Pointer$.base_50_const_1579253845| () (Array (_ BitVec 64) (Array (_ BitVec 64) (_ BitVec 64))))
(declare-fun |v_#memory_$Pointer$.base_51_const_1579253844| () (Array (_ BitVec 64) (Array (_ BitVec 64) (_ BitVec 64))))
(declare-fun |v_#memory_$Pointer$.offset_61_const_1484089783| () (Array (_ BitVec 64) (Array (_ BitVec 64) (_ BitVec 64))))
(declare-fun |v_#memory_$Pointer$.offset_47_const_1484089855| () (Array (_ BitVec 64) (Array (_ BitVec 64) (_ BitVec 64))))
(declare-fun |v_#memory_$Pointer$.offset_48_const_1484089854| () (Array (_ BitVec 64) (Array (_ BitVec 64) (_ BitVec 64))))
(declare-fun |v_#memory_int_69_const_-1468270466| () (Array (_ BitVec 64) (Array (_ BitVec 64) (_ BitVec 32))))
(declare-fun |v_#memory_$Pointer$.offset_62_const_1484089782| () (Array (_ BitVec 64) (Array (_ BitVec 64) (_ BitVec 64))))
(declare-fun v_~__CS_thread~0.base_13_const_-1365684393 () (Array (_ BitVec 64) (_ BitVec 64)))
(declare-fun v_~__CS_thread~0.base_14_const_-1365684394 () (Array (_ BitVec 64) (_ BitVec 64)))
(declare-fun |v_#memory_$Pointer$.base_46_const_1579253950| () (Array (_ BitVec 64) (Array (_ BitVec 64) (_ BitVec 64))))
(declare-fun |v_#memory_$Pointer$.base_47_const_1579253949| () (Array (_ BitVec 64) (Array (_ BitVec 64) (_ BitVec 64))))
(declare-fun |v_#memory_$Pointer$.offset_66_const_1484089778| () (Array (_ BitVec 64) (Array (_ BitVec 64) (_ BitVec 64))))
(declare-fun |v_#memory_$Pointer$.offset_67_const_1484089777| () (Array (_ BitVec 64) (Array (_ BitVec 64) (_ BitVec 64))))
(declare-fun |v_#memory_int_77_const_-1468270563| () (Array (_ BitVec 64) (Array (_ BitVec 64) (_ BitVec 32))))
(declare-fun |v_ULTIMATE.start_main_~#__CS_cp___CS_thread_status~0#1.base_12_const_-527873466| () (_ BitVec 64))
(declare-fun |v_ULTIMATE.start_main_~#__CS_cp___CS_thread_status~0#1.offset_12_const_-628117756| () (_ BitVec 64))
(declare-fun |v_#memory_int_70_const_-1468270588| () (Array (_ BitVec 64) (Array (_ BitVec 64) (_ BitVec 32))))
(declare-fun |v_#memory_$Pointer$.base_64_const_1579253874| () (Array (_ BitVec 64) (Array (_ BitVec 64) (_ BitVec 64))))
(declare-fun |v_#memory_$Pointer$.base_66_const_1579253872| () (Array (_ BitVec 64) (Array (_ BitVec 64) (_ BitVec 64))))
(declare-fun |v_#memory_$Pointer$.base_67_const_1579253887| () (Array (_ BitVec 64) (Array (_ BitVec 64) (_ BitVec 64))))
(declare-fun |v_#memory_$Pointer$.base_65_const_1579253873| () (Array (_ BitVec 64) (Array (_ BitVec 64) (_ BitVec 64))))
(declare-fun |v_#memory_$Pointer$.offset_46_const_1484089840| () (Array (_ BitVec 64) (Array (_ BitVec 64) (_ BitVec 64))))
(declare-fun |v_#memory_$Pointer$.offset_51_const_1484089750| () (Array (_ BitVec 64) (Array (_ BitVec 64) (_ BitVec 64))))
(declare-fun |v_#memory_$Pointer$.offset_52_const_1484089749| () (Array (_ BitVec 64) (Array (_ BitVec 64) (_ BitVec 64))))
(declare-fun |v_ULTIMATE.start_main_#t~mem74#1_2_const_-1733475173| () (_ BitVec 8))
(assert (let ((.cse4 (select |v_#memory_int_67_const_-1468270468| |v_~#__CS_thread_lockedon~0.base_8_const_1870902617|)) (.cse11 (select |v_#memory_$Pointer$.offset_64_const_1484089780| |v_~#__CS_thread_status~0.base_14_const_56953579|)) (.cse14 (select |v_#memory_$Pointer$.base_54_const_1579253841| |v_~#x~0.base_4_const_1306971464|)) (.cse38 (select |v_#memory_$Pointer$.base_62_const_1579253876| |v_~#__CS_thread_status~0.base_14_const_56953579|)) (.cse0 (select |v_#memory_$Pointer$.offset_54_const_1484089747| |v_~#x~0.base_4_const_1306971464|)) (.cse17 (bvadd |v_ULTIMATE.start_main_~#__CS_cp___CS_thread_lockedon~0#1.offset_12_const_-1401369445| (_ bv64 64))) (.cse5 (bvadd |v_~#__CS_thread_lockedon~0.offset_8_const_-2049935653| (_ bv40 64))) (.cse19 (bvadd |v_ULTIMATE.start_main_~#__CS_cp___CS_thread_lockedon~0#1.offset_12_const_-1401369445| (_ bv40 64))) (.cse3 (bvadd |v_~#__CS_thread_lockedon~0.offset_8_const_-2049935653| (_ bv56 64))) (.cse21 (bvadd |v_ULTIMATE.start_main_~#__CS_cp___CS_thread_lockedon~0#1.offset_12_const_-1401369445| (_ bv56 64))) (.cse24 (bvadd |v_ULTIMATE.start_main_~#__CS_cp___CS_thread_lockedon~0#1.offset_12_const_-1401369445| (_ bv32 64))) (.cse27 (bvadd |v_ULTIMATE.start_main_~#__CS_cp___CS_thread_lockedon~0#1.offset_12_const_-1401369445| (_ bv48 64))) (.cse29 (bvadd |v_ULTIMATE.start_main_~#__CS_cp___CS_thread_lockedon~0#1.offset_12_const_-1401369445| (_ bv24 64))) (.cse2 (select |v_#memory_int_68_const_-1468270465| |v_~#__CS_thread_lockedon~0.base_8_const_1870902617|)) (.cse23 (bvadd |v_~#__CS_thread_lockedon~0.offset_8_const_-2049935653| (_ bv32 64))) (.cse33 (select |v_#memory_$Pointer$.base_48_const_1579253948| |v_~#b2~0.base_4_const_-1547226636|)) (.cse55 (select |v_#memory_$Pointer$.offset_66_const_1484089778| |v_~#__CS_thread_status~0.base_14_const_56953579|)) (.cse9 (select |v_#memory_$Pointer$.offset_65_const_1484089779| |v_~#__CS_thread_status~0.base_14_const_56953579|)) (.cse28 (bvadd |v_~#__CS_thread_lockedon~0.offset_8_const_-2049935653| (_ bv24 64))) (.cse39 (bvadd |v_~#__CS_thread_status~0.offset_14_const_-1919497367| (_ bv8 64))) (.cse36 (select |v_#memory_$Pointer$.base_63_const_1579253875| |v_~#__CS_thread_status~0.base_14_const_56953579|)) (.cse30 (bvadd |v_~#__CS_thread_status~0.offset_14_const_-1919497367| (_ bv7 64))) (.cse54 (bvadd (_ bv3 64) |v_~#__CS_thread_status~0.offset_14_const_-1919497367|)) (.cse65 (select |v_#memory_$Pointer$.base_66_const_1579253872| |v_~#__CS_thread_status~0.base_14_const_56953579|)) (.cse56 (bvadd |v_~#__CS_thread_status~0.offset_14_const_-1919497367| (_ bv6 64))) (.cse31 (select |v_#memory_$Pointer$.offset_63_const_1484089781| |v_~#__CS_thread_status~0.base_14_const_56953579|)) (.cse51 (select |v_#memory_$Pointer$.offset_62_const_1484089782| |v_~#__CS_thread_status~0.base_14_const_56953579|)) (.cse37 (bvadd |v_~#__CS_thread_status~0.offset_14_const_-1919497367| (_ bv5 64))) (.cse6 (select |v_#memory_int_66_const_-1468270467| |v_~#__CS_thread_lockedon~0.base_8_const_1870902617|)) (.cse16 (bvadd |v_~#__CS_thread_lockedon~0.offset_8_const_-2049935653| (_ bv64 64))) (.cse58 (select |v_#memory_int_70_const_-1468270588| |v_~#__CS_thread_lockedon~0.base_8_const_1870902617|)) (.cse50 (select |v_#memory_int_69_const_-1468270466| |v_~#__CS_thread_lockedon~0.base_8_const_1870902617|)) (.cse26 (bvadd |v_~#__CS_thread_lockedon~0.offset_8_const_-2049935653| (_ bv48 64))) (.cse48 (select |v_#memory_$Pointer$.offset_48_const_1484089854| |v_~#b2~0.base_4_const_-1547226636|)) (.cse8 (select |v_#memory_$Pointer$.base_52_const_1579253843| |v_~#y~0.base_4_const_2042609255|)) (.cse66 (select |v_#memory_$Pointer$.base_65_const_1579253873| |v_~#__CS_thread_status~0.base_14_const_56953579|)) (.cse64 (select |v_#memory_$Pointer$.base_64_const_1579253874| |v_~#__CS_thread_status~0.base_14_const_56953579|)) (.cse10 (bvadd |v_~#__CS_thread_status~0.offset_14_const_-1919497367| (_ bv4 64))) (.cse34 (select |v_#memory_$Pointer$.offset_50_const_1484089751| |v_~#b1~0.base_4_const_-1274134315|)) (.cse53 (select |v_#memory_$Pointer$.base_46_const_1579253950| |v_~#X~0.base_4_const_-80469656|)) (.cse52 (bvadd |v_~#X~0.offset_4_const_-290446934| (_ bv4 64))) (.cse49 (bvadd (_ bv8 64) |v_~#b2~0.offset_4_const_-20623562|)) (.cse32 (bvadd |v_~#b2~0.offset_4_const_-20623562| (_ bv4 64))) (.cse40 (bvadd |v_~#b1~0.offset_4_const_-157867433| (_ bv4 64))) (.cse68 (bvadd (_ bv8 64) |v_~#y~0.offset_4_const_-324340887|)) (.cse1 (bvadd (_ bv8 64) |v_~#x~0.offset_4_const_-461548150|)) (.cse13 (bvadd |v_~#x~0.offset_4_const_-461548150| (_ bv4 64))) (.cse69 (select |v_#memory_$Pointer$.offset_52_const_1484089749| |v_~#y~0.base_4_const_2042609255|)) (.cse7 (bvadd |v_~#y~0.offset_4_const_-324340887| (_ bv4 64))) (.cse67 (select |v_#memory_$Pointer$.offset_46_const_1484089840| |v_~#X~0.base_4_const_-80469656|)) (.cse70 (bvadd (_ bv8 64) |v_~#X~0.offset_4_const_-290446934|)) (.cse41 (select |v_#memory_$Pointer$.base_50_const_1579253845| |v_~#b1~0.base_4_const_-1274134315|)) (.cse35 (bvadd (_ bv8 64) |v_~#b1~0.offset_4_const_-157867433|))) (and (= (store |v_#memory_$Pointer$.offset_43_const_1484089843| |v_~#__CS_thread_allocated~0.base_4_const_-1693733985| (store (select |v_#memory_$Pointer$.offset_43_const_1484089843| |v_~#__CS_thread_allocated~0.base_4_const_-1693733985|) |v_~#__CS_thread_allocated~0.offset_4_const_-211819903| (select (select |v_#memory_$Pointer$.offset_42_const_1484089844| |v_~#__CS_thread_allocated~0.base_4_const_-1693733985|) |v_~#__CS_thread_allocated~0.offset_4_const_-211819903|))) |v_#memory_$Pointer$.offset_42_const_1484089844|) (= (store |v_#memory_$Pointer$.base_45_const_1579253951| |v_~#__CS_thread_born_round~0.base_4_const_-1016668058| (store (select |v_#memory_$Pointer$.base_45_const_1579253951| |v_~#__CS_thread_born_round~0.base_4_const_-1016668058|) |v_~#__CS_thread_born_round~0.offset_4_const_-2053727960| (select (select |v_#memory_$Pointer$.base_44_const_1579253936| |v_~#__CS_thread_born_round~0.base_4_const_-1016668058|) |v_~#__CS_thread_born_round~0.offset_4_const_-2053727960|))) |v_#memory_$Pointer$.base_44_const_1579253936|) (= |v_#memory_$Pointer$.offset_53_const_1484089748| (store |v_#memory_$Pointer$.offset_54_const_1484089747| |v_~#x~0.base_4_const_1306971464| (store .cse0 .cse1 (select (select |v_#memory_$Pointer$.offset_53_const_1484089748| |v_~#x~0.base_4_const_1306971464|) .cse1)))) (= |v_#memory_int_67_const_-1468270468| (store |v_#memory_int_68_const_-1468270465| |v_~#__CS_thread_lockedon~0.base_8_const_1870902617| (store .cse2 .cse3 (select .cse4 .cse3)))) (= |v_#memory_int_66_const_-1468270467| (store |v_#memory_int_67_const_-1468270468| |v_~#__CS_thread_lockedon~0.base_8_const_1870902617| (store .cse4 .cse5 (select .cse6 .cse5)))) (= (store |v_#memory_$Pointer$.base_53_const_1579253842| |v_~#y~0.base_4_const_2042609255| (store (select |v_#memory_$Pointer$.base_53_const_1579253842| |v_~#y~0.base_4_const_2042609255|) .cse7 (select .cse8 .cse7))) |v_#memory_$Pointer$.base_52_const_1579253843|) (= (store |v_#memory_$Pointer$.offset_65_const_1484089779| |v_~#__CS_thread_status~0.base_14_const_56953579| (store .cse9 .cse10 (select .cse11 .cse10))) |v_#memory_$Pointer$.offset_64_const_1484089780|) (= |v_#memory_$Pointer$.base_54_const_1579253841| (let ((.cse12 (store |v_#memory_$Pointer$.base_61_const_1579253877| |v_~#__CS_thread_lockedon~0.base_8_const_1870902617| (let ((.cse15 (let ((.cse18 (let ((.cse20 (let ((.cse22 (let ((.cse25 (store (select |v_#memory_$Pointer$.base_61_const_1579253877| |v_~#__CS_thread_lockedon~0.base_8_const_1870902617|) .cse28 (select (select |v_#memory_$Pointer$.base_61_const_1579253877| |v_ULTIMATE.start_main_~#__CS_cp___CS_thread_lockedon~0#1.base_12_const_-1112745699|) .cse29)))) (store .cse25 .cse26 (select (select (store |v_#memory_$Pointer$.base_61_const_1579253877| |v_~#__CS_thread_lockedon~0.base_8_const_1870902617| .cse25) |v_ULTIMATE.start_main_~#__CS_cp___CS_thread_lockedon~0#1.base_12_const_-1112745699|) .cse27))))) (store .cse22 .cse23 (select (select (store |v_#memory_$Pointer$.base_61_const_1579253877| |v_~#__CS_thread_lockedon~0.base_8_const_1870902617| .cse22) |v_ULTIMATE.start_main_~#__CS_cp___CS_thread_lockedon~0#1.base_12_const_-1112745699|) .cse24))))) (store .cse20 .cse3 (select (select (store |v_#memory_$Pointer$.base_61_const_1579253877| |v_~#__CS_thread_lockedon~0.base_8_const_1870902617| .cse20) |v_ULTIMATE.start_main_~#__CS_cp___CS_thread_lockedon~0#1.base_12_const_-1112745699|) .cse21))))) (store .cse18 .cse5 (select (select (store |v_#memory_$Pointer$.base_61_const_1579253877| |v_~#__CS_thread_lockedon~0.base_8_const_1870902617| .cse18) |v_ULTIMATE.start_main_~#__CS_cp___CS_thread_lockedon~0#1.base_12_const_-1112745699|) .cse19))))) (store .cse15 .cse16 (select (select (store |v_#memory_$Pointer$.base_61_const_1579253877| |v_~#__CS_thread_lockedon~0.base_8_const_1870902617| .cse15) |v_ULTIMATE.start_main_~#__CS_cp___CS_thread_lockedon~0#1.base_12_const_-1112745699|) .cse17)))))) (store .cse12 |v_~#x~0.base_4_const_1306971464| (store (select .cse12 |v_~#x~0.base_4_const_1306971464|) .cse13 (select .cse14 .cse13))))) (= (store |v_#memory_$Pointer$.offset_64_const_1484089780| |v_~#__CS_thread_status~0.base_14_const_56953579| (store .cse11 .cse30 (select .cse31 .cse30))) |v_#memory_$Pointer$.offset_63_const_1484089781|) (= v_~__CS_thread~0.offset_13_const_236801113 (store v_~__CS_thread~0.offset_14_const_236801112 (_ bv0 64) |#funAddr~main_thread.offset|)) (= (store |v_#memory_$Pointer$.offset_45_const_1484089841| |v_~#__CS_thread_born_round~0.base_4_const_-1016668058| (store (select |v_#memory_$Pointer$.offset_45_const_1484089841| |v_~#__CS_thread_born_round~0.base_4_const_-1016668058|) |v_~#__CS_thread_born_round~0.offset_4_const_-2053727960| (select (select |v_#memory_$Pointer$.offset_44_const_1484089842| |v_~#__CS_thread_born_round~0.base_4_const_-1016668058|) |v_~#__CS_thread_born_round~0.offset_4_const_-2053727960|))) |v_#memory_$Pointer$.offset_44_const_1484089842|) (= (store |v_#memory_$Pointer$.base_49_const_1579253947| |v_~#b2~0.base_4_const_-1547226636| (store (select |v_#memory_$Pointer$.base_49_const_1579253947| |v_~#b2~0.base_4_const_-1547226636|) .cse32 (select .cse33 .cse32))) |v_#memory_$Pointer$.base_48_const_1579253948|) (= v_~__CS_thread_index~0_11_const_1368743350 (_ bv0 8)) (= |v_#memory_$Pointer$.offset_49_const_1484089853| (store |v_#memory_$Pointer$.offset_50_const_1484089751| |v_~#b1~0.base_4_const_-1274134315| (store .cse34 .cse35 (select (select |v_#memory_$Pointer$.offset_49_const_1484089853| |v_~#b1~0.base_4_const_-1274134315|) .cse35)))) (= (store |v_#memory_$Pointer$.base_43_const_1579253937| |v_~#__CS_thread_allocated~0.base_4_const_-1693733985| (store (select |v_#memory_$Pointer$.base_43_const_1579253937| |v_~#__CS_thread_allocated~0.base_4_const_-1693733985|) |v_~#__CS_thread_allocated~0.offset_4_const_-211819903| (select (select |v_#memory_$Pointer$.base_42_const_1579253938| |v_~#__CS_thread_allocated~0.base_4_const_-1693733985|) |v_~#__CS_thread_allocated~0.offset_4_const_-211819903|))) |v_#memory_$Pointer$.base_42_const_1579253938|) (= (store |v_#memory_$Pointer$.base_63_const_1579253875| |v_~#__CS_thread_status~0.base_14_const_56953579| (store .cse36 .cse37 (select .cse38 .cse37))) |v_#memory_$Pointer$.base_62_const_1579253876|) (= (store |v_#memory_$Pointer$.base_54_const_1579253841| |v_~#x~0.base_4_const_1306971464| (store .cse14 .cse1 (select (select |v_#memory_$Pointer$.base_53_const_1579253842| |v_~#x~0.base_4_const_1306971464|) .cse1))) |v_#memory_$Pointer$.base_53_const_1579253842|) (= (store |v_#memory_$Pointer$.base_62_const_1579253876| |v_~#__CS_thread_status~0.base_14_const_56953579| (store .cse38 .cse39 (select (select |v_#memory_$Pointer$.base_61_const_1579253877| |v_~#__CS_thread_status~0.base_14_const_56953579|) .cse39))) |v_#memory_$Pointer$.base_61_const_1579253877|) (= (store |v_#memory_$Pointer$.base_51_const_1579253844| |v_~#b1~0.base_4_const_-1274134315| (store (select |v_#memory_$Pointer$.base_51_const_1579253844| |v_~#b1~0.base_4_const_-1274134315|) .cse40 (select .cse41 .cse40))) |v_#memory_$Pointer$.base_50_const_1579253845|) (= (let ((.cse42 (store |v_#memory_$Pointer$.offset_61_const_1484089783| |v_~#__CS_thread_lockedon~0.base_8_const_1870902617| (let ((.cse43 (let ((.cse44 (let ((.cse45 (let ((.cse46 (let ((.cse47 (store (select |v_#memory_$Pointer$.offset_61_const_1484089783| |v_~#__CS_thread_lockedon~0.base_8_const_1870902617|) .cse28 (select (select |v_#memory_$Pointer$.offset_61_const_1484089783| |v_ULTIMATE.start_main_~#__CS_cp___CS_thread_lockedon~0#1.base_12_const_-1112745699|) .cse29)))) (store .cse47 .cse26 (select (select (store |v_#memory_$Pointer$.offset_61_const_1484089783| |v_~#__CS_thread_lockedon~0.base_8_const_1870902617| .cse47) |v_ULTIMATE.start_main_~#__CS_cp___CS_thread_lockedon~0#1.base_12_const_-1112745699|) .cse27))))) (store .cse46 .cse23 (select (select (store |v_#memory_$Pointer$.offset_61_const_1484089783| |v_~#__CS_thread_lockedon~0.base_8_const_1870902617| .cse46) |v_ULTIMATE.start_main_~#__CS_cp___CS_thread_lockedon~0#1.base_12_const_-1112745699|) .cse24))))) (store .cse45 .cse3 (select (select (store |v_#memory_$Pointer$.offset_61_const_1484089783| |v_~#__CS_thread_lockedon~0.base_8_const_1870902617| .cse45) |v_ULTIMATE.start_main_~#__CS_cp___CS_thread_lockedon~0#1.base_12_const_-1112745699|) .cse21))))) (store .cse44 .cse5 (select (select (store |v_#memory_$Pointer$.offset_61_const_1484089783| |v_~#__CS_thread_lockedon~0.base_8_const_1870902617| .cse44) |v_ULTIMATE.start_main_~#__CS_cp___CS_thread_lockedon~0#1.base_12_const_-1112745699|) .cse19))))) (store .cse43 .cse16 (select (select (store |v_#memory_$Pointer$.offset_61_const_1484089783| |v_~#__CS_thread_lockedon~0.base_8_const_1870902617| .cse43) |v_ULTIMATE.start_main_~#__CS_cp___CS_thread_lockedon~0#1.base_12_const_-1112745699|) .cse17)))))) (store .cse42 |v_~#x~0.base_4_const_1306971464| (store (select .cse42 |v_~#x~0.base_4_const_1306971464|) .cse13 (select .cse0 .cse13)))) |v_#memory_$Pointer$.offset_54_const_1484089747|) (= (store |v_#memory_$Pointer$.offset_48_const_1484089854| |v_~#b2~0.base_4_const_-1547226636| (store .cse48 .cse49 (select (select |v_#memory_$Pointer$.offset_47_const_1484089855| |v_~#b2~0.base_4_const_-1547226636|) .cse49))) |v_#memory_$Pointer$.offset_47_const_1484089855|) (= |v_#memory_int_68_const_-1468270465| (store |v_#memory_int_69_const_-1468270466| |v_~#__CS_thread_lockedon~0.base_8_const_1870902617| (store .cse50 .cse23 (select .cse2 .cse23)))) (= |v_#memory_$Pointer$.offset_61_const_1484089783| (store |v_#memory_$Pointer$.offset_62_const_1484089782| |v_~#__CS_thread_status~0.base_14_const_56953579| (store .cse51 .cse39 (select (select |v_#memory_$Pointer$.offset_61_const_1484089783| |v_~#__CS_thread_status~0.base_14_const_56953579|) .cse39)))) (= v_~__CS_thread~0.base_13_const_-1365684393 (store v_~__CS_thread~0.base_14_const_-1365684394 (_ bv0 64) |#funAddr~main_thread.base|)) (= (store |v_#memory_$Pointer$.base_47_const_1579253949| |v_~#X~0.base_4_const_-80469656| (store (select |v_#memory_$Pointer$.base_47_const_1579253949| |v_~#X~0.base_4_const_-80469656|) .cse52 (select .cse53 .cse52))) |v_#memory_$Pointer$.base_46_const_1579253950|) (= (store |v_#memory_$Pointer$.offset_67_const_1484089777| |v_~#__CS_thread_status~0.base_14_const_56953579| (store (select |v_#memory_$Pointer$.offset_67_const_1484089777| |v_~#__CS_thread_status~0.base_14_const_56953579|) .cse54 (select .cse55 .cse54))) |v_#memory_$Pointer$.offset_66_const_1484089778|) (= (store |v_#memory_$Pointer$.base_48_const_1579253948| |v_~#b2~0.base_4_const_-1547226636| (store .cse33 .cse49 (select (select |v_#memory_$Pointer$.base_47_const_1579253949| |v_~#b2~0.base_4_const_-1547226636|) .cse49))) |v_#memory_$Pointer$.base_47_const_1579253949|) (= |v_#memory_$Pointer$.offset_65_const_1484089779| (store |v_#memory_$Pointer$.offset_66_const_1484089778| |v_~#__CS_thread_status~0.base_14_const_56953579| (store .cse55 .cse56 (select .cse9 .cse56)))) (= |v_#memory_int_70_const_-1468270588| (let ((.cse57 (store |v_#memory_int_77_const_-1468270563| |v_~#__CS_thread_status~0.base_14_const_56953579| (let ((.cse59 (let ((.cse60 (let ((.cse61 (let ((.cse62 (let ((.cse63 (store (select |v_#memory_int_77_const_-1468270563| |v_~#__CS_thread_status~0.base_14_const_56953579|) .cse54 ((_ sign_extend 24) ((_ extract 7 0) (select (select |v_#memory_int_77_const_-1468270563| |v_ULTIMATE.start_main_~#__CS_cp___CS_thread_status~0#1.base_12_const_-527873466|) (bvadd (_ bv3 64) |v_ULTIMATE.start_main_~#__CS_cp___CS_thread_status~0#1.offset_12_const_-628117756|))))))) (store .cse63 .cse56 ((_ sign_extend 24) ((_ extract 7 0) (select (select (store |v_#memory_int_77_const_-1468270563| |v_~#__CS_thread_status~0.base_14_const_56953579| .cse63) |v_ULTIMATE.start_main_~#__CS_cp___CS_thread_status~0#1.base_12_const_-527873466|) (bvadd |v_ULTIMATE.start_main_~#__CS_cp___CS_thread_status~0#1.offset_12_const_-628117756| (_ bv6 64))))))))) (store .cse62 .cse10 ((_ sign_extend 24) ((_ extract 7 0) (select (select (store |v_#memory_int_77_const_-1468270563| |v_~#__CS_thread_status~0.base_14_const_56953579| .cse62) |v_ULTIMATE.start_main_~#__CS_cp___CS_thread_status~0#1.base_12_const_-527873466|) (bvadd |v_ULTIMATE.start_main_~#__CS_cp___CS_thread_status~0#1.offset_12_const_-628117756| (_ bv4 64))))))))) (store .cse61 .cse30 ((_ sign_extend 24) ((_ extract 7 0) (select (select (store |v_#memory_int_77_const_-1468270563| |v_~#__CS_thread_status~0.base_14_const_56953579| .cse61) |v_ULTIMATE.start_main_~#__CS_cp___CS_thread_status~0#1.base_12_const_-527873466|) (bvadd |v_ULTIMATE.start_main_~#__CS_cp___CS_thread_status~0#1.offset_12_const_-628117756| (_ bv7 64))))))))) (store .cse60 .cse37 ((_ sign_extend 24) ((_ extract 7 0) (select (select (store |v_#memory_int_77_const_-1468270563| |v_~#__CS_thread_status~0.base_14_const_56953579| .cse60) |v_ULTIMATE.start_main_~#__CS_cp___CS_thread_status~0#1.base_12_const_-527873466|) (bvadd |v_ULTIMATE.start_main_~#__CS_cp___CS_thread_status~0#1.offset_12_const_-628117756| (_ bv5 64))))))))) (store .cse59 .cse39 ((_ sign_extend 24) ((_ extract 7 0) (select (select (store |v_#memory_int_77_const_-1468270563| |v_~#__CS_thread_status~0.base_14_const_56953579| .cse59) |v_ULTIMATE.start_main_~#__CS_cp___CS_thread_status~0#1.base_12_const_-527873466|) (bvadd (_ bv8 64) |v_ULTIMATE.start_main_~#__CS_cp___CS_thread_status~0#1.offset_12_const_-628117756|))))))))) (store .cse57 |v_~#__CS_thread_lockedon~0.base_8_const_1870902617| (store (select .cse57 |v_~#__CS_thread_lockedon~0.base_8_const_1870902617|) .cse28 (select .cse58 .cse28))))) (= (store |v_#memory_$Pointer$.base_64_const_1579253874| |v_~#__CS_thread_status~0.base_14_const_56953579| (store .cse64 .cse30 (select .cse36 .cse30))) |v_#memory_$Pointer$.base_63_const_1579253875|) (= (store |v_#memory_$Pointer$.base_67_const_1579253887| |v_~#__CS_thread_status~0.base_14_const_56953579| (store (select |v_#memory_$Pointer$.base_67_const_1579253887| |v_~#__CS_thread_status~0.base_14_const_56953579|) .cse54 (select .cse65 .cse54))) |v_#memory_$Pointer$.base_66_const_1579253872|) (= (store |v_#memory_$Pointer$.base_66_const_1579253872| |v_~#__CS_thread_status~0.base_14_const_56953579| (store .cse65 .cse56 (select .cse66 .cse56))) |v_#memory_$Pointer$.base_65_const_1579253873|) (= (store |v_#memory_$Pointer$.offset_63_const_1484089781| |v_~#__CS_thread_status~0.base_14_const_56953579| (store .cse31 .cse37 (select .cse51 .cse37))) |v_#memory_$Pointer$.offset_62_const_1484089782|) (= (store |v_#memory_$Pointer$.base_44_const_1579253936| |v_~#__CS_thread_status~0.base_14_const_56953579| (store (select |v_#memory_$Pointer$.base_44_const_1579253936| |v_~#__CS_thread_status~0.base_14_const_56953579|) |v_~#__CS_thread_status~0.offset_14_const_-1919497367| (select (select |v_#memory_$Pointer$.base_43_const_1579253937| |v_~#__CS_thread_status~0.base_14_const_56953579|) |v_~#__CS_thread_status~0.offset_14_const_-1919497367|))) |v_#memory_$Pointer$.base_43_const_1579253937|) (= |v_#memory_int_65_const_-1468270470| (store |v_#memory_int_66_const_-1468270467| |v_~#__CS_thread_lockedon~0.base_8_const_1870902617| (store .cse6 .cse16 (select (select |v_#memory_int_65_const_-1468270470| |v_~#__CS_thread_lockedon~0.base_8_const_1870902617|) .cse16)))) (= (_ bv0 8) v_~__CS_round~0_21_const_1613994104) (= |v_#memory_int_69_const_-1468270466| (store |v_#memory_int_70_const_-1468270588| |v_~#__CS_thread_lockedon~0.base_8_const_1870902617| (store .cse58 .cse26 (select .cse50 .cse26)))) (= |v_#memory_$Pointer$.offset_48_const_1484089854| (store |v_#memory_$Pointer$.offset_49_const_1484089853| |v_~#b2~0.base_4_const_-1547226636| (store (select |v_#memory_$Pointer$.offset_49_const_1484089853| |v_~#b2~0.base_4_const_-1547226636|) .cse32 (select .cse48 .cse32)))) (= (store |v_#memory_$Pointer$.offset_47_const_1484089855| |v_~#X~0.base_4_const_-80469656| (store (select |v_#memory_$Pointer$.offset_47_const_1484089855| |v_~#X~0.base_4_const_-80469656|) .cse52 (select .cse67 .cse52))) |v_#memory_$Pointer$.offset_46_const_1484089840|) (= (store |v_#memory_$Pointer$.base_52_const_1579253843| |v_~#y~0.base_4_const_2042609255| (store .cse8 .cse68 (select (select |v_#memory_$Pointer$.base_51_const_1579253844| |v_~#y~0.base_4_const_2042609255|) .cse68))) |v_#memory_$Pointer$.base_51_const_1579253844|) (= (store |v_#memory_$Pointer$.base_65_const_1579253873| |v_~#__CS_thread_status~0.base_14_const_56953579| (store .cse66 .cse10 (select .cse64 .cse10))) |v_#memory_$Pointer$.base_64_const_1579253874|) (= (store |v_#memory_$Pointer$.offset_52_const_1484089749| |v_~#y~0.base_4_const_2042609255| (store .cse69 .cse68 (select (select |v_#memory_$Pointer$.offset_51_const_1484089750| |v_~#y~0.base_4_const_2042609255|) .cse68))) |v_#memory_$Pointer$.offset_51_const_1484089750|) (= |v_#memory_$Pointer$.offset_50_const_1484089751| (store |v_#memory_$Pointer$.offset_51_const_1484089750| |v_~#b1~0.base_4_const_-1274134315| (store (select |v_#memory_$Pointer$.offset_51_const_1484089750| |v_~#b1~0.base_4_const_-1274134315|) .cse40 (select .cse34 .cse40)))) (= (store |v_#memory_$Pointer$.base_46_const_1579253950| |v_~#X~0.base_4_const_-80469656| (store .cse53 .cse70 (select (select |v_#memory_$Pointer$.base_45_const_1579253951| |v_~#X~0.base_4_const_-80469656|) .cse70))) |v_#memory_$Pointer$.base_45_const_1579253951|) (= (store |v_#memory_$Pointer$.offset_44_const_1484089842| |v_~#__CS_thread_status~0.base_14_const_56953579| (store (select |v_#memory_$Pointer$.offset_44_const_1484089842| |v_~#__CS_thread_status~0.base_14_const_56953579|) |v_~#__CS_thread_status~0.offset_14_const_-1919497367| (select (select |v_#memory_$Pointer$.offset_43_const_1484089843| |v_~#__CS_thread_status~0.base_14_const_56953579|) |v_~#__CS_thread_status~0.offset_14_const_-1919497367|))) |v_#memory_$Pointer$.offset_43_const_1484089843|) (= |v_#memory_int_52_const_-1468270504| (let ((.cse71 (let ((.cse72 (let ((.cse73 (let ((.cse74 (let ((.cse76 (let ((.cse78 (let ((.cse80 (store |v_#memory_int_65_const_-1468270470| |v_~#x~0.base_4_const_1306971464| (let ((.cse82 (store (select |v_#memory_int_65_const_-1468270470| |v_~#x~0.base_4_const_1306971464|) .cse13 (select (select |v_#memory_int_65_const_-1468270470| |v_ULTIMATE.start_main_~#__CS_cp_x~0#1.base_8_const_-692665139|) (bvadd |v_ULTIMATE.start_main_~#__CS_cp_x~0#1.offset_8_const_-1657968305| (_ bv4 64)))))) (store .cse82 .cse1 (select (select (store |v_#memory_int_65_const_-1468270470| |v_~#x~0.base_4_const_1306971464| .cse82) |v_ULTIMATE.start_main_~#__CS_cp_x~0#1.base_8_const_-692665139|) (bvadd |v_ULTIMATE.start_main_~#__CS_cp_x~0#1.offset_8_const_-1657968305| (_ bv8 64)))))))) (store .cse80 |v_~#y~0.base_4_const_2042609255| (let ((.cse81 (store (select .cse80 |v_~#y~0.base_4_const_2042609255|) .cse7 (select (select .cse80 |v_ULTIMATE.start_main_~#__CS_cp_y~0#1.base_8_const_-555458132|) (bvadd |v_ULTIMATE.start_main_~#__CS_cp_y~0#1.offset_8_const_-1085361426| (_ bv4 64)))))) (store .cse81 .cse68 (select (select (store .cse80 |v_~#y~0.base_4_const_2042609255| .cse81) |v_ULTIMATE.start_main_~#__CS_cp_y~0#1.base_8_const_-555458132|) (bvadd (_ bv8 64) |v_ULTIMATE.start_main_~#__CS_cp_y~0#1.offset_8_const_-1085361426|)))))))) (store .cse78 |v_~#b1~0.base_4_const_-1274134315| (let ((.cse79 (store (select .cse78 |v_~#b1~0.base_4_const_-1274134315|) .cse40 (select (select .cse78 |v_ULTIMATE.start_main_~#__CS_cp_b1~0#1.base_8_const_-291449572|) (bvadd (_ bv4 64) |v_ULTIMATE.start_main_~#__CS_cp_b1~0#1.offset_8_const_1318685278|))))) (store .cse79 .cse35 (select (select (store .cse78 |v_~#b1~0.base_4_const_-1274134315| .cse79) |v_ULTIMATE.start_main_~#__CS_cp_b1~0#1.base_8_const_-291449572|) (bvadd (_ bv8 64) |v_ULTIMATE.start_main_~#__CS_cp_b1~0#1.offset_8_const_1318685278|)))))))) (store .cse76 |v_~#b2~0.base_4_const_-1547226636| (let ((.cse77 (store (select .cse76 |v_~#b2~0.base_4_const_-1547226636|) .cse32 (select (select .cse76 |v_ULTIMATE.start_main_~#__CS_cp_b2~0#1.base_8_const_-152145157|) (bvadd (_ bv4 64) |v_ULTIMATE.start_main_~#__CS_cp_b2~0#1.offset_8_const_1757139965|))))) (store .cse77 .cse49 (select (select (store .cse76 |v_~#b2~0.base_4_const_-1547226636| .cse77) |v_ULTIMATE.start_main_~#__CS_cp_b2~0#1.base_8_const_-152145157|) (bvadd (_ bv8 64) |v_ULTIMATE.start_main_~#__CS_cp_b2~0#1.offset_8_const_1757139965|)))))))) (store .cse74 |v_~#X~0.base_4_const_-80469656| (let ((.cse75 (store (select .cse74 |v_~#X~0.base_4_const_-80469656|) .cse52 (select (select .cse74 |v_ULTIMATE.start_main_~#__CS_cp_X~0#1.base_8_const_-657616659|) (bvadd (_ bv4 64) |v_ULTIMATE.start_main_~#__CS_cp_X~0#1.offset_8_const_1491582319|))))) (store .cse75 .cse70 (select (select (store .cse74 |v_~#X~0.base_4_const_-80469656| .cse75) |v_ULTIMATE.start_main_~#__CS_cp_X~0#1.base_8_const_-657616659|) (bvadd (_ bv8 64) |v_ULTIMATE.start_main_~#__CS_cp_X~0#1.offset_8_const_1491582319|)))))))) (store .cse73 |v_~#__CS_thread_born_round~0.base_4_const_-1016668058| (store (select .cse73 |v_~#__CS_thread_born_round~0.base_4_const_-1016668058|) |v_~#__CS_thread_born_round~0.offset_4_const_-2053727960| ((_ sign_extend 24) v_~__CS_round~0_21_const_1613994104)))))) (store .cse72 |v_~#__CS_thread_status~0.base_14_const_56953579| (store (select .cse72 |v_~#__CS_thread_status~0.base_14_const_56953579|) |v_~#__CS_thread_status~0.offset_14_const_-1919497367| ((_ sign_extend 24) v_~__THREAD_RUNNING~0_4_const_-1361775354)))))) (store .cse71 |v_~#__CS_thread_allocated~0.base_4_const_-1693733985| (store (select .cse71 |v_~#__CS_thread_allocated~0.base_4_const_-1693733985|) |v_~#__CS_thread_allocated~0.offset_4_const_-211819903| ((_ sign_extend 24) (_ bv1 8)))))) (= |v_#memory_$Pointer$.offset_52_const_1484089749| (store |v_#memory_$Pointer$.offset_53_const_1484089748| |v_~#y~0.base_4_const_2042609255| (store (select |v_#memory_$Pointer$.offset_53_const_1484089748| |v_~#y~0.base_4_const_2042609255|) .cse7 (select .cse69 .cse7)))) (= |v_ULTIMATE.start_main_#t~mem74#1_2_const_-1733475173| ((_ extract 7 0) (select (select |v_#memory_int_52_const_-1468270504| |v_~#__CS_thread_allocated~0.base_4_const_-1693733985|) |v_~#__CS_thread_allocated~0.offset_4_const_-211819903|))) (= (store |v_#memory_$Pointer$.offset_46_const_1484089840| |v_~#X~0.base_4_const_-80469656| (store .cse67 .cse70 (select (select |v_#memory_$Pointer$.offset_45_const_1484089841| |v_~#X~0.base_4_const_-80469656|) .cse70))) |v_#memory_$Pointer$.offset_45_const_1484089841|) (= (store |v_#memory_$Pointer$.base_50_const_1579253845| |v_~#b1~0.base_4_const_-1274134315| (store .cse41 .cse35 (select (select |v_#memory_$Pointer$.base_49_const_1579253947| |v_~#b1~0.base_4_const_-1274134315|) .cse35))) |v_#memory_$Pointer$.base_49_const_1579253947|))))
(check-sat)
(exit)
